Problem:    
Rows:       260
Columns:    89 (72 integer, 72 binary)
Non-zeros:  974
Status:     INTEGER OPTIMAL
Objective:  value = 22.673341 (MINimum)

   No.   Row name        Activity     Lower bound   Upper bound
------ ------------    ------------- ------------- -------------
     1 r.5                   1022.67             0               
     2 r.6                  -990.521      -992.163               
     3 r.7                   22.6733             0               
     4 r.8                    11.534      -992.796               
     5 r.9                   22.6733             0               
     6 r.10                  -990.58      -992.222               
     7 r.11                  1022.67             0               
     8 r.12                 -983.757      -992.657               
     9 r.13                  1022.67             0               
    10 r.14                 -989.493      -999.528               
    11 r.15                  22.6733             0               
    12 r.16                   11.534        -998.4               
    13 r.17                  22.6733             0               
    14 r.18                  16.2429      -999.212               
    15 r.19                  1022.67             0               
    16 r.20                   -991.1      -997.441               
    17 r.21                  22.6733             0               
    18 r.22                  11.6175      -996.349               
    19 r.23                  1022.67             0               
    20 r.24                  -994.13      -996.115               
    21 r.25                  22.6733             0               
    22 r.26                  2.75295      -999.703               
    23 r.27                  1022.67             0               
    24 r.28                 -999.301      -999.301               
    25 r.29                  22.6733             0               
    26 r.30                  22.6733       -988.05               
    27 r.31                  1022.67             0               
    28 r.32                 -977.327       -993.57               
    29 r.33                  1022.67             0               
    30 r.34                 -977.327      -988.389               
    31 r.35                  22.6733             0               
    32 r.36                  22.6733       -994.19               
    33 r.37                        1             1             = 
    34 r.38                        1             1             = 
    35 r.39                        1             1             = 
    36 r.40                        1             1             = 
    37 r.41                        1             1             = 
    38 r.42                        1             1             = 
    39 r.43                        1             1             = 
    40 r.44                        1             1             = 
    41 r.45                     1001             2               
    42 r.46                    -1001         -1001               
    43 r.47                  999.386      -992.222               
    44 r.48                     1001             2               
    45 r.49                    -1001         -1001               
    46 r.50                  2005.18      -992.657               
    47 r.51                        2             2               
    48 r.52                       -2         -1001               
    49 r.53                 -999.528      -999.528               
    50 r.54                     1000             2               
    51 r.55                    -1000         -1001               
    52 r.56                  2000.47        -998.4               
    53 r.57                     1001             2               
    54 r.58                    -1001         -1001               
    55 r.59                  2006.21      -999.212               
    56 r.60                     1001             2               
    57 r.61                    -1001         -1001               
    58 r.62                  1997.84      -997.441               
    59 r.63                     1001             2               
    60 r.64                    -1001         -1001               
    61 r.65                  2001.58      -996.349               
    62 r.66                     1001             2               
    63 r.67                    -1001         -1001               
    64 r.68                  1994.81      -996.115               
    65 r.69                 -992.163      -992.163               
    66 r.70                  9.89156      -992.796               
    67 r.71                 -992.163      -992.163               
    68 r.72                  9.89156      -992.796               
    69 r.73                  12.6388       -988.05               
    70 r.74                 -987.361       -993.57               
    71 r.75                  11.6111       -988.05               
    72 r.76                 -988.389       -993.57               
    73 r.77                 -987.361      -988.389               
    74 r.78                  12.6388       -994.19               
    75 r.79                 -988.389      -988.389               
    76 r.80                  11.6111       -994.19               
    77 r.81                     1001             2               
    78 r.82                    -1001         -1001               
    79 r.83                  3000.06       7.83687               
    80 r.84                     1001             2               
    81 r.85                    -1001         -1001               
    82 r.86                  1995.29       7.20443               
    83 r.87                     1001             2               
    84 r.88                    -1001         -1001               
    85 r.89                  3001.09      -999.528               
    86 r.90                     1001             2               
    87 r.91                    -1001         -1001               
    88 r.92                  1995.29        -998.4               
    89 r.93                     1000             2               
    90 r.94                    -1000         -1001               
    91 r.95                  3006.82      -999.212               
    92 r.96                        2             2               
    93 r.97                       -2         -1001               
    94 r.98                 -7.34277      -997.441               
    95 r.99                     1000             2               
    96 r.100                   -1000         -1001               
    97 r.101                  3002.2      -996.349               
    98 r.102                       2             2               
    99 r.103                      -2         -1001               
   100 r.104                -10.3731      -996.115               
   101 r.105                -992.222      -992.222               
   102 r.106                  -985.4      -992.657               
   103 r.107                -992.222      -992.222               
   104 r.108                  -985.4      -992.657               
   105 r.109                 1013.25       -988.05               
   106 r.110                 13.2529       -993.57               
   107 r.111                 6.43044       -988.05               
   108 r.112                 -993.57       -993.57               
   109 r.113                    1001             2               
   110 r.114                   -1001         -1001               
   111 r.115                 3013.25      -988.389               
   112 r.116                    1001             2               
   113 r.117                   -1001         -1001               
   114 r.118                 2006.43       -994.19               
   115 r.119                       2             2               
   116 r.120                      -2         -1001               
   117 r.121                 998.417       7.83687               
   118 r.122                    1000             2               
   119 r.123                   -1000         -1001               
   120 r.124                 2000.47       7.20443               
   121 r.125                    1001             2               
   122 r.126                   -1001         -1001               
   123 r.127                 998.358       7.77792               
   124 r.128                    1001             2               
   125 r.129                   -1001         -1001               
   126 r.130                 2005.18       7.34277               
   127 r.131                    1001             2               
   128 r.132                   -1001         -1001               
   129 r.133                 2005.18      -999.212               
   130 r.134                    1001             2               
   131 r.135                   -1001         -1001               
   132 r.136                 1997.84      -997.441               
   133 r.137                    1001             2               
   134 r.138                   -1001         -1001               
   135 r.139                 2000.56      -996.349               
   136 r.140                    1001             2               
   137 r.141                   -1001         -1001               
   138 r.142                 1994.81      -996.115               
   139 r.143                -991.135      -999.528               
   140 r.144                 9.89156        -998.4               
   141 r.145                -991.135      -999.528               
   142 r.146                 9.89156        -998.4               
   143 r.147                 11.6111       -988.05               
   144 r.148                -988.389       -993.57               
   145 r.149                 11.6111       -988.05               
   146 r.150                -988.389       -993.57               
   147 r.151                -988.389      -988.389               
   148 r.152                 11.6111       -994.19               
   149 r.153                -988.389      -988.389               
   150 r.154                 11.6111       -994.19               
   151 r.155                    1001             2               
   152 r.156                   -1001         -1001               
   153 r.157                 1993.24       7.83687               
   154 r.158                    1001             2               
   155 r.159                   -1001         -1001               
   156 r.160                 2002.63       7.20443               
   157 r.161                    1000             2               
   158 r.162                   -1000         -1001               
   159 r.163                 993.178       7.77792               
   160 r.164                       2             2               
   161 r.165                      -2         -1001               
   162 r.166                 7.34277       7.34277               
   163 r.167                    1001             2               
   164 r.168                   -1001         -1001               
   165 r.169                 1994.26      0.472422               
   166 r.170                    1001             2               
   167 r.171                   -1001         -1001               
   168 r.172                 2002.63       1.60035               
   169 r.173                    1000             2               
   170 r.174                   -1000         -1001               
   171 r.175                 1995.37      -996.349               
   172 r.176                       2             2               
   173 r.177                      -2         -1001               
   174 r.178                -3.03034      -996.115               
   175 r.179                 14.6004      -999.212               
   176 r.180                -992.742      -997.441               
   177 r.181                 14.6004      -999.212               
   178 r.182                -992.742      -997.441               
   179 r.183                 6.43044       -988.05               
   180 r.184                 -993.57       -993.57               
   181 r.185                 13.7732       -988.05               
   182 r.186                -986.227       -993.57               
   183 r.187                    1001             2               
   184 r.188                   -1001         -1001               
   185 r.189                 2006.43      -988.389               
   186 r.190                    1001             2               
   187 r.191                   -1001         -1001               
   188 r.192                 2013.77       -994.19               
   189 r.193                    1001             2               
   190 r.194                   -1001         -1001               
   191 r.195                 1998.42       7.83687               
   192 r.196                    1001             2               
   193 r.197                   -1001         -1001               
   194 r.198                 2005.19       7.20443               
   195 r.199                    1000             2               
   196 r.200                   -1000         -1001               
   197 r.201                 998.358       7.77792               
   198 r.202                       2             2               
   199 r.203                      -2         -1001               
   200 r.204                 9.90131       7.34277               
   201 r.205                    1001             2               
   202 r.206                   -1001         -1001               
   203 r.207                 1999.44      0.472422               
   204 r.208                    1001             2               
   205 r.209                   -1001         -1001               
   206 r.210                 2005.19       1.60035               
   207 r.211                    1000             2               
   208 r.212                   -1000         -1001               
   209 r.213                 2005.18      0.787689               
   210 r.214                       2             2               
   211 r.215                      -2         -1001               
   212 r.216                 2.55854       2.55854               
   213 r.217                   9.975      -996.349               
   214 r.218                -995.773      -996.115               
   215 r.219                   9.975      -996.349               
   216 r.220                -995.773      -996.115               
   217 r.221                    1000             2               
   218 r.222                   -1000         -1001               
   219 r.223                 2011.61       -988.05               
   220 r.224                       2             2               
   221 r.225                      -2         -1001               
   222 r.226                -983.668       -993.57               
   223 r.227                -988.389      -988.389               
   224 r.228                 11.6111       -994.19               
   225 r.229                -983.668      -988.389               
   226 r.230                 16.3318       -994.19               
   227 r.231                 21.0309       -988.05               
   228 r.232                -978.969       -993.57               
   229 r.233                 21.0309       -988.05               
   230 r.234                -978.969       -993.57               
   231 r.235                    1000             2               
   232 r.236                   -1000         -1001               
   233 r.237                 1988.94       3.65117               
   234 r.238                       2             2               
   235 r.239                      -2         -1001               
   236 r.240                 983.196       3.88481               
   237 r.241                    1001             2               
   238 r.242                   -1001         -1001               
   239 r.243                    2000      -988.389               
   240 r.244                    1001             2               
   241 r.245                   -1001         -1001               
   242 r.246                    2000       -994.19               
   243 r.247                    1001             2               
   244 r.248                   -1001         -1001               
   245 r.249                 986.747       7.77792               
   246 r.250                    1001             2               
   247 r.251                   -1001         -1001               
   248 r.252                 1993.57       7.34277               
   249 r.253                    1001             2               
   250 r.254                   -1001         -1001               
   251 r.255                 1993.57      0.787689               
   252 r.256                    1001             2               
   253 r.257                   -1001         -1001               
   254 r.258                 1986.23       2.55854               
   255 r.259                    1001             2               
   256 r.260                   -1001         -1001               
   257 r.261                    2000       11.9502               
   258 r.262                    1001             2               
   259 r.263                   -1001         -1001               
   260 r.264                    2000       6.43044               

   No. Column name       Activity     Lower bound   Upper bound
------ ------------    ------------- ------------- -------------
     1 tt                    22.6733             0               
     2 s_1_1        *              1             0             1 
     3 t_1_1                 12.6388             0               
     4 s_1_8        *              1             0             1 
     5 s_1_7        *              0             0             1 
     6 s_2_1        *              0             0             1 
     7 t_2_1                 11.6111             0               
     8 s_2_8        *              0             0             1 
     9 s_2_7        *              1             0             1 
    10 s_1_2        *              0             0             1 
    11 t_1_2                 1013.25             0               
    12 s_2_2        *              1             0             1 
    13 t_2_2                 6.43044             0               
    14 s_1_3        *              1             0             1 
    15 t_1_3                 11.6111             0               
    16 s_2_3        *              0             0             1 
    17 t_2_3                 11.6111             0               
    18 s_1_4        *              0             0             1 
    19 t_1_4                 6.43044             0               
    20 s_2_4        *              1             0             1 
    21 t_2_4                 13.7732             0               
    22 s_1_5        *              0             0             1 
    23 t_1_5                 11.6111             0               
    24 s_2_5        *              1             0             1 
    25 t_2_5                 16.3318             0               
    26 s_1_6        *              0             0             1 
    27 t_1_6                 21.0309             0               
    28 s_2_6        *              1             0             1 
    29 t_2_6                 21.0309             0               
    30 t_1_7                       0             0               
    31 t_2_7                       0             0               
    32 t_1_8                       0             0               
    33 t_2_8                       0             0               
    34 r_1_1_2      *              1             0             1 
    35 u_1_1_2      *              0             0             1 
    36 r_2_1_2      *              1             0             1 
    37 u_2_1_2      *              0             0             1 
    38 r_1_1_3      *              0             0             1 
    39 u_1_1_3      *              1             0             1 
    40 r_2_1_3      *              1             0             1 
    41 u_2_1_3      *              0             0             1 
    42 r_1_1_4      *              1             0             1 
    43 u_1_1_4      *              0             0             1 
    44 r_2_1_4      *              1             0             1 
    45 u_2_1_4      *              0             0             1 
    46 r_1_1_5      *              1             0             1 
    47 u_1_1_5      *              0             0             1 
    48 r_2_1_5      *              1             0             1 
    49 u_2_1_5      *              0             0             1 
    50 r_1_2_3      *              1             0             1 
    51 u_1_2_3      *              0             0             1 
    52 r_2_2_3      *              1             0             1 
    53 u_2_2_3      *              0             0             1 
    54 r_1_2_4      *              1             0             1 
    55 u_1_2_4      *              0             0             1 
    56 r_2_2_4      *              0             0             1 
    57 u_2_2_4      *              0             0             1 
    58 r_1_2_5      *              1             0             1 
    59 u_1_2_5      *              0             0             1 
    60 r_2_2_5      *              0             0             1 
    61 u_2_2_5      *              0             0             1 
    62 r_1_2_8      *              1             0             1 
    63 u_1_2_8      *              0             0             1 
    64 r_2_2_8      *              1             0             1 
    65 u_2_2_8      *              0             0             1 
    66 r_1_3_4      *              1             0             1 
    67 u_1_3_4      *              0             0             1 
    68 r_2_3_4      *              1             0             1 
    69 u_2_3_4      *              0             0             1 
    70 r_1_3_5      *              1             0             1 
    71 u_1_3_5      *              0             0             1 
    72 r_2_3_5      *              1             0             1 
    73 u_2_3_5      *              0             0             1 
    74 r_1_4_5      *              1             0             1 
    75 u_1_4_5      *              0             0             1 
    76 r_2_4_5      *              0             0             1 
    77 u_2_4_5      *              0             0             1 
    78 r_1_4_8      *              1             0             1 
    79 u_1_4_8      *              0             0             1 
    80 r_2_4_8      *              1             0             1 
    81 u_2_4_8      *              0             0             1 
    82 r_1_5_7      *              1             0             1 
    83 u_1_5_7      *              0             0             1 
    84 r_2_5_7      *              0             0             1 
    85 u_2_5_7      *              1             0             1 
    86 r_1_7_8      *              1             0             1 
    87 u_1_7_8      *              0             0             1 
    88 r_2_7_8      *              1             0             1 
    89 u_2_7_8      *              0             0             1 

Integer feasibility conditions:

KKT.PE: max.abs.err = 4.55e-13 on row 79
        max.rel.err = 7.54e-17 on row 79
        High quality

KKT.PB: max.abs.err = 1.14e-13 on row 24
        max.rel.err = 1.14e-16 on row 24
        High quality

End of output
